words_hard_train/410.qaiger
aag 112 16 0 1 96
2
4
12
14
18
22
26
30
40
42
46
50
54
58
62
72
224
6 2 5
8 3 4
10 7 9
16 13 15
20 16 19
24 20 23
28 24 27
32 28 31
34 10 33
36 11 32
38 35 37
44 41 43
48 44 47
52 48 51
56 52 55
60 56 59
64 60 63
66 39 65
68 38 64
70 67 69
74 73 40
76 40 42
78 77 45
80 79 15
82 74 81
84 78 14
86 83 85
88 12 14
90 89 17
92 45 46
94 93 49
96 91 95
98 90 94
100 97 99
102 87 100
104 103 99
106 17 18
108 107 21
110 49 50
112 111 53
114 109 113
116 108 112
118 115 117
120 105 118
122 121 117
124 21 22
126 125 25
128 53 54
130 129 57
132 127 131
134 126 130
136 133 135
138 123 136
140 139 135
142 25 26
144 143 29
146 57 58
148 147 61
150 145 149
152 144 148
154 151 153
156 141 154
158 157 153
160 29 30
162 33 161
164 61 62
166 165 65
168 163 167
170 162 166
172 169 171
174 159 172
176 175 171
178 71 176
180 70 177
182 179 181
184 104 119
186 185 121
188 86 101
190 189 103
192 187 191
194 81 85
196 195 74
198 72 41
200 198 194
202 197 201
204 122 137
206 205 139
208 203 207
210 140 155
212 211 157
214 208 213
216 158 173
218 217 175
220 214 219
222 192 220
224 183 222
i0 1 x1[7]
i1 2 y1[7]
i2 1 x1[2]
i3 1 x1[1]
i4 1 x1[3]
i5 1 x1[4]
i6 1 x1[5]
i7 1 x1[6]
i8 2 y1[0]
i9 2 y1[1]
i10 2 y1[2]
i11 2 y1[3]
i12 2 y1[4]
i13 2 y1[5]
i14 2 y1[6]
i15 1 x1[0]
o0 bool[0]
c
simplified
  ==
    << 1
      1
    subtract
      subtract
        1
        1 x1
      2 y1
