words_hard_train/410.qaiger.qdimacs
p cnf 112 289
a 1 36 6 7 9 11 13 15 0
e 2 3 4 5 8 10 12 14 16 17 18 19 20 21 22 23 24 25 26 27 28 29 30 31 32 33 34 35 37 38 39 40 41 42 43 44 45 46 47 48 49 50 51 52 53 54 55 56 57 58 59 60 61 62 63 64 65 66 67 68 69 70 71 72 73 74 75 76 77 78 79 80 81 82 83 84 85 86 87 88 89 90 91 92 93 94 95 96 97 98 99 100 101 102 103 104 105 106 107 108 109 110 111 112 0
-1 2 3 0
1 -3 0
-2 -3 0
1 -2 4 0
-1 -4 0
2 -4 0
3 4 5 0
-3 -5 0
-4 -5 0
6 7 8 0
-6 -8 0
-7 -8 0
-8 9 10 0
8 -10 0
-9 -10 0
-10 11 12 0
10 -12 0
-11 -12 0
-12 13 14 0
12 -14 0
-13 -14 0
-14 15 16 0
14 -16 0
-15 -16 0
-5 16 17 0
5 -17 0
-16 -17 0
5 -16 18 0
-5 -18 0
16 -18 0
17 18 19 0
-17 -19 0
-18 -19 0
20 21 22 0
-20 -22 0
-21 -22 0
-22 23 24 0
22 -24 0
-23 -24 0
-24 25 26 0
24 -26 0
-25 -26 0
-26 27 28 0
26 -28 0
-27 -28 0
-28 29 30 0
28 -30 0
-29 -30 0
-30 31 32 0
30 -32 0
-31 -32 0
19 32 33 0
-19 -33 0
-32 -33 0
-19 -32 34 0
19 -34 0
32 -34 0
33 34 35 0
-33 -35 0
-34 -35 0
36 -20 37 0
-36 -37 0
20 -37 0
-20 -21 38 0
20 -38 0
21 -38 0
38 22 39 0
-38 -39 0
-22 -39 0
39 7 40 0
-39 -40 0
-7 -40 0
-37 40 41 0
37 -41 0
-40 -41 0
-39 -7 42 0
39 -42 0
7 -42 0
41 42 43 0
-41 -43 0
-42 -43 0
-6 -7 44 0
6 -44 0
7 -44 0
44 8 45 0
-44 -45 0
-8 -45 0
22 -23 46 0
-22 -46 0
23 -46 0
46 24 47 0
-46 -47 0
-24 -47 0
45 47 48 0
-45 -48 0
-47 -48 0
-45 -47 49 0
45 -49 0
47 -49 0
48 49 50 0
-48 -50 0
-49 -50 0
43 -50 51 0
-43 -51 0
50 -51 0
51 49 52 0
-51 -52 0
-49 -52 0
8 -9 53 0
-8 -53 0
9 -53 0
53 10 54 0
-53 -54 0
-10 -54 0
24 -25 55 0
-24 -55 0
25 -55 0
55 26 56 0
-55 -56 0
-26 -56 0
54 56 57 0
-54 -57 0
-56 -57 0
-54 -56 58 0
54 -58 0
56 -58 0
57 58 59 0
-57 -59 0
-58 -59 0
52 -59 60 0
-52 -60 0
59 -60 0
60 58 61 0
-60 -61 0
-58 -61 0
10 -11 62 0
-10 -62 0
11 -62 0
62 12 63 0
-62 -63 0
-12 -63 0
26 -27 64 0
-26 -64 0
27 -64 0
64 28 65 0
-64 -65 0
-28 -65 0
63 65 66 0
-63 -66 0
-65 -66 0
-63 -65 67 0
63 -67 0
65 -67 0
66 67 68 0
-66 -68 0
-67 -68 0
61 -68 69 0
-61 -69 0
68 -69 0
69 67 70 0
-69 -70 0
-67 -70 0
12 -13 71 0
-12 -71 0
13 -71 0
71 14 72 0
-71 -72 0
-14 -72 0
28 -29 73 0
-28 -73 0
29 -73 0
73 30 74 0
-73 -74 0
-30 -74 0
72 74 75 0
-72 -75 0
-74 -75 0
-72 -74 76 0
72 -76 0
74 -76 0
75 76 77 0
-75 -77 0
-76 -77 0
70 -77 78 0
-70 -78 0
77 -78 0
78 76 79 0
-78 -79 0
-76 -79 0
14 -15 80 0
-14 -80 0
15 -80 0
16 80 81 0
-16 -81 0
-80 -81 0
30 -31 82 0
-30 -82 0
31 -82 0
82 32 83 0
-82 -83 0
-32 -83 0
81 83 84 0
-81 -84 0
-83 -84 0
-81 -83 85 0
81 -85 0
83 -85 0
84 85 86 0
-84 -86 0
-85 -86 0
79 -86 87 0
-79 -87 0
86 -87 0
87 85 88 0
-87 -88 0
-85 -88 0
35 -88 89 0
-35 -89 0
88 -89 0
-35 88 90 0
35 -90 0
-88 -90 0
89 90 91 0
-89 -91 0
-90 -91 0
-52 59 92 0
52 -92 0
-59 -92 0
92 60 93 0
-92 -93 0
-60 -93 0
-43 50 94 0
43 -94 0
-50 -94 0
94 51 95 0
-94 -95 0
-51 -95 0
93 95 96 0
-93 -96 0
-95 -96 0
40 42 97 0
-40 -97 0
-42 -97 0
97 -37 98 0
-97 -98 0
37 -98 0
-36 20 99 0
36 -99 0
-20 -99 0
-99 -97 100 0
99 -100 0
97 -100 0
98 100 101 0
-98 -101 0
-100 -101 0
-61 68 102 0
61 -102 0
-68 -102 0
102 69 103 0
-102 -103 0
-69 -103 0
101 103 104 0
-101 -104 0
-103 -104 0
-70 77 105 0
70 -105 0
-77 -105 0
105 78 106 0
-105 -106 0
-78 -106 0
-104 106 107 0
104 -107 0
-106 -107 0
-79 86 108 0
79 -108 0
-86 -108 0
108 87 109 0
-108 -109 0
-87 -109 0
-107 109 110 0
107 -110 0
-109 -110 0
-96 -110 111 0
96 -111 0
110 -111 0
91 -111 112 0
-91 -112 0
111 -112 0
112 0
